decision_x1=[0,2];
decision_x2=[0,2];
decision_x3=[0,2];
decision_x4=[0,2];
decision_x5=[0,2];
decision_x6=[0,2];
decision_x7=[0,2];
decision_x8=[0,2];
decision_x9=[0,2];
decision_x10=[0,2];
decision_x11=[0,2];
decision_x12=[0,2];
random_y1=[0,2];
random_y2=[0,2];
random_y3=[0,2];
random_y4=[0,2];
random_y5=[0,2];
random_y6=[0,2];
random_y7=[0,2];
random_y8=[0,2];
random_y9=[0,2];
random_y10=[0,2];
random_y11=[0,2];
random_y12=[0,2];
constraint_x3_x1=[
0,0,47|
0,1,17|
0,2,31|
1,0,66|
1,1,46|
1,2,95|
2,0,32|
2,1,75|
2,2,15|
];
constraint_x5_x1=[
0,0,49|
0,1,46|
0,2,85|
1,0,33|
1,1,65|
1,2,12|
2,0,48|
2,1,94|
2,2,56|
];
constraint_x5_x2=[
0,0,39|
0,1,35|
0,2,85|
1,0,77|
1,1,37|
1,2,25|
2,0,83|
2,1,61|
2,2,7.3|
];
constraint_x5_x3=[
0,0,73|
0,1,3.9|
0,2,68|
1,0,50|
1,1,8.6|
1,2,70|
2,0,76|
2,1,81|
2,2,92|
];
constraint_x6_x1=[
0,0,82|
0,1,89|
0,2,39|
1,0,91|
1,1,30|
1,2,82|
2,0,60|
2,1,2.7|
2,2,81|
];
constraint_x6_x2=[
0,0,94|
0,1,72|
0,2,29|
1,0,59|
1,1,37|
1,2,37|
2,0,6.6|
2,1,89|
2,2,68|
];
constraint_x6_x3=[
0,0,55|
0,1,58|
0,2,4.2|
1,0,36|
1,1,74|
1,2,61|
2,0,65|
2,1,75|
2,2,26|
];
constraint_x6_x4=[
0,0,81|
0,1,91|
0,2,9.2|
1,0,97|
1,1,75|
1,2,94|
2,0,11|
2,1,33|
2,2,90|
];
constraint_x7_x1=[
0,0,29|
0,1,13|
0,2,64|
1,0,7.2|
1,1,87|
1,2,20|
2,0,30|
2,1,74|
2,2,87|
];
constraint_x7_x2=[
0,0,37|
0,1,87|
0,2,28|
1,0,47|
1,1,48|
1,2,78|
2,0,36|
2,1,8.4|
2,2,15|
];
constraint_x7_x4=[
0,0,96|
0,1,97|
0,2,78|
1,0,55|
1,1,14|
1,2,25|
2,0,42|
2,1,83|
2,2,88|
];
constraint_x7_x5=[
0,0,19|
0,1,32|
0,2,16|
1,0,65|
1,1,39|
1,2,11|
2,0,92|
2,1,41|
2,2,28|
];
constraint_x8_x1=[
0,0,73|
0,1,1.5|
0,2,27|
1,0,25|
1,1,93|
1,2,58|
2,0,6.7|
2,1,51|
2,2,46|
];
constraint_x8_x3=[
0,0,99|
0,1,69|
0,2,73|
1,0,88|
1,1,72|
1,2,83|
2,0,97|
2,1,85|
2,2,3.2|
];
constraint_x8_x5=[
0,0,1.2|
0,1,75|
0,2,27|
1,0,30|
1,1,63|
1,2,53|
2,0,18|
2,1,10|
2,2,50|
];
constraint_x9_x1=[
0,0,77|
0,1,37|
0,2,42|
1,0,70|
1,1,95|
1,2,22|
2,0,62|
2,1,48|
2,2,56|
];
constraint_x9_x2=[
0,0,43|
0,1,53|
0,2,96|
1,0,82|
1,1,69|
1,2,50|
2,0,78|
2,1,52|
2,2,82|
];
constraint_x9_x3=[
0,0,83|
0,1,97|
0,2,65|
1,0,70|
1,1,25|
1,2,38|
2,0,45|
2,1,96|
2,2,58|
];
constraint_x9_x5=[
0,0,79|
0,1,71|
0,2,41|
1,0,0.79|
1,1,3.7|
1,2,86|
2,0,65|
2,1,91|
2,2,81|
];
constraint_x9_x7=[
0,0,10|
0,1,99|
0,2,95|
1,0,28|
1,1,65|
1,2,52|
2,0,60|
2,1,26|
2,2,71|
];
constraint_x10_x1=[
0,0,43|
0,1,71|
0,2,52|
1,0,4.1|
1,1,81|
1,2,42|
2,0,3.2|
2,1,67|
2,2,31|
];
constraint_x10_x4=[
0,0,40|
0,1,19|
0,2,44|
1,0,1e+02|
1,1,46|
1,2,96|
2,0,33|
2,1,79|
2,2,30|
];
constraint_x10_x7=[
0,0,0.17|
0,1,37|
0,2,52|
1,0,92|
1,1,81|
1,2,17|
2,0,4.4|
2,1,41|
2,2,54|
];
constraint_x10_x8=[
0,0,60|
0,1,35|
0,2,51|
1,0,26|
1,1,16|
1,2,70|
2,0,90|
2,1,59|
2,2,39|
];
constraint_x10_x9=[
0,0,78|
0,1,43|
0,2,86|
1,0,47|
1,1,58|
1,2,50|
2,0,97|
2,1,49|
2,2,30|
];
constraint_x11_x2=[
0,0,94|
0,1,18|
0,2,44|
1,0,87|
1,1,16|
1,2,29|
2,0,35|
2,1,53|
2,2,6.9|
];
constraint_x11_x3=[
0,0,64|
0,1,80|
0,2,71|
1,0,98|
1,1,46|
1,2,95|
2,0,74|
2,1,59|
2,2,85|
];
constraint_x11_x6=[
0,0,29|
0,1,10|
0,2,46|
1,0,38|
1,1,51|
1,2,12|
2,0,2.7|
2,1,25|
2,2,12|
];
constraint_x11_x8=[
0,0,40|
0,1,80|
0,2,34|
1,0,66|
1,1,19|
1,2,52|
2,0,38|
2,1,6.1|
2,2,67|
];
constraint_x11_x10=[
0,0,57|
0,1,55|
0,2,65|
1,0,85|
1,1,93|
1,2,67|
2,0,87|
2,1,99|
2,2,95|
];
constraint_x12_x7=[
0,0,60|
0,1,45|
0,2,78|
1,0,13|
1,1,92|
1,2,71|
2,0,36|
2,1,35|
2,2,87|
];
constraint_x12_x8=[
0,0,54|
0,1,24|
0,2,54|
1,0,62|
1,1,59|
1,2,97|
2,0,75|
2,1,7.6|
2,2,90|
];
constraint_x12_x9=[
0,0,71|
0,1,62|
0,2,2.8|
1,0,54|
1,1,41|
1,2,34|
2,0,46|
2,1,13|
2,2,34|
];
constraint_x1_y1=[
0,0,81|
0,1,59|
0,2,82|
1,0,59|
1,1,27|
1,2,30|
2,0,2|
2,1,97|
2,2,43|
];
constraint_x2_y2=[
0,0,34|
0,1,18|
0,2,18|
1,0,51|
1,1,62|
1,2,5.9|
2,0,87|
2,1,68|
2,2,68|
];
constraint_x3_y3=[
0,0,43|
0,1,18|
0,2,24|
1,0,96|
1,1,41|
1,2,64|
2,0,72|
2,1,89|
2,2,14|
];
constraint_x4_y4=[
0,0,51|
0,1,75|
0,2,12|
1,0,15|
1,1,92|
1,2,35|
2,0,42|
2,1,44|
2,2,18|
];
constraint_x5_y5=[
0,0,28|
0,1,58|
0,2,67|
1,0,10|
1,1,37|
1,2,0.74|
2,0,41|
2,1,92|
2,2,36|
];
constraint_x6_y6=[
0,0,46|
0,1,3.6|
0,2,47|
1,0,11|
1,1,34|
1,2,17|
2,0,63|
2,1,40|
2,2,14|
];
constraint_x7_y7=[
0,0,31|
0,1,82|
0,2,30|
1,0,9.9|
1,1,86|
1,2,84|
2,0,5.8|
2,1,41|
2,2,96|
];
constraint_x8_y8=[
0,0,58|
0,1,69|
0,2,7.7|
1,0,51|
1,1,19|
1,2,2.1|
2,0,89|
2,1,26|
2,2,34|
];
constraint_x9_y9=[
0,0,64|
0,1,64|
0,2,68|
1,0,45|
1,1,16|
1,2,25|
2,0,13|
2,1,3.6|
2,2,97|
];
constraint_x10_y10=[
0,0,45|
0,1,8.7|
0,2,63|
1,0,26|
1,1,87|
1,2,3.9|
2,0,1.6|
2,1,55|
2,2,47|
];
constraint_x11_y11=[
0,0,71|
0,1,63|
0,2,12|
1,0,80|
1,1,66|
1,2,58|
2,0,12|
2,1,61|
2,2,97|
];
constraint_x12_y12=[
0,0,23|
0,1,11|
0,2,42|
1,0,25|
1,1,68|
1,2,83|
2,0,82|
2,1,50|
2,2,48|
];
initial_distribution_y1=[0.23,0.11,0.66];
initial_distribution_y2=[0.51,0.41,0.08];
initial_distribution_y3=[0.068,0.31,0.62];
initial_distribution_y4=[0.44,0.29,0.27];
initial_distribution_y5=[0.41,0.31,0.28];
initial_distribution_y6=[0.32,0.32,0.35];
initial_distribution_y7=[0.28,0.31,0.41];
initial_distribution_y8=[0.06,0.57,0.37];
initial_distribution_y9=[0.5,0.45,0.05];
initial_distribution_y10=[0.3,0.45,0.25];
initial_distribution_y11=[0.22,0.49,0.29];
initial_distribution_y12=[0.5,0.49,0.012];
transition_y1=[
0.18,0.5,0.31|
0.07,0.88,0.045|
0.49,0.24,0.27|
];
transition_y2=[
0.43,0.24,0.33|
0.34,0.32,0.35|
0.44,0.28,0.28|
];
transition_y3=[
0.6,0.37,0.024|
0.17,0.68,0.15|
0.088,0.48,0.43|
];
transition_y4=[
0.53,0.46,0.013|
0.33,0.64,0.034|
0.16,0.3,0.54|
];
transition_y5=[
0.27,0.2,0.53|
0.4,0.5,0.11|
0.35,0.18,0.47|
];
transition_y6=[
0.28,0.56,0.16|
0.36,0.31,0.34|
0.38,0.34,0.28|
];
transition_y7=[
0.21,0.54,0.25|
0.44,0.15,0.41|
0.28,0.4,0.31|
];
transition_y8=[
0.33,0.26,0.41|
0.039,0.4,0.56|
0.16,0.37,0.47|
];
transition_y9=[
0.43,0.35,0.22|
0.11,0.4,0.49|
0.36,0.11,0.53|
];
transition_y10=[
0.57,0.022,0.41|
0.092,0.37,0.53|
0.37,0.37,0.25|
];
transition_y11=[
0.19,0.39,0.43|
0.41,0.31,0.28|
0.31,0.6,0.089|
];
transition_y12=[
0.18,0.23,0.59|
0.57,0.3,0.13|
0.39,0.25,0.36|
];
